p cnf 15 22
15 12 -10 0
-15 9 -7 0
15 5 -3 0
-14 -13 -5 0
13 -11 -7 0
-13 -9 7 0
-13 6 2 0
12 -11 5 0
-12 7 3 0
-12 4 3 0
-12 4 2 0
12 3 2 0
-12 -3 -1 0
-11 -10 7 0
-11 8 3 0
10 8 -7 0
10 8 -3 0
10 3 2 0
9 -7 6 0
8 -7 -1 0
-8 6 5 0
7 -3 -2 0
